# Solution for model Master Problem
# Objective value = 5.3833610451229856e+02
theta[1] 0
theta[2] 0
theta[3] 0
theta[4] 0
theta[5] 0
theta[6] 0
theta[7] 0
theta[8] 0
theta[9] 0
theta[10] 0
theta[11] 0
theta[12] 0
theta[13] 0
theta[14] 0
theta[15] 0
theta[16] 0
theta[17] 0
theta[18] 0
theta[19] 0
theta[20] 0
theta[21] 0
theta[22] 0
theta[23] 0
theta[24] 0
theta[25] 0
theta[26] 0
theta[27] 0
theta[28] 0
theta[29] 7.3684210526315785e-01
theta[30] 0
theta[31] 0
theta[32] 0
theta[33] 0
theta[34] 0
theta[35] 0
theta[36] 1.0526315789473684e-01
theta[37] 2.6315789473684215e-01
theta[38] 0
theta[39] 0
theta[40] 3.1578947368421051e-01
theta[41] 0
theta[42] 5.2631578947368418e-02
theta[43] 2.6315789473684215e-01
theta[44] 0
theta[45] 0
theta[46] 0
theta[47] 0
theta[48] 0
theta[49] 5.2631578947368418e-02
theta[50] 3.6842105263157893e-01
theta[51] 0
theta[52] 0
theta[53] 0
theta[54] 0
theta[55] 0
theta[56] 0
theta[57] 1.5789473684210509e-01
theta[58] 1.5789473684210509e-01
theta[59] 0
theta[60] 0.631578947368421
theta[61] 1.0526315789473667e-01
theta[62] 3.1578947368421051e-01
theta[63] 5.2631578947368418e-02
theta[64] 5.2631578947368418e-02
theta[65] 0
theta[66] 0
theta[67] 0
theta[68] 3.6842105263157887e-01
theta[69] 3.6842105263157887e-01
theta[70] 5.2631578947368030e-02
theta[71] 2.6315789473684259e-01
theta[72] 8.4210526315789491e-01
theta[73] 1.5789473684210531e-01
